32	4
17	20	15	15
0	0	0	0	0	3	2	20	31
7	17	0	0	15	1	3
10	0	20	15	0	1	4
6	13	12	0	0	1	5
9	0	0	13	9	1	6
7	0	15	15	0	1	7
7	17	20	0	0	1	8
6	0	0	14	10	1	9
3	14	20	0	0	1	10
3	0	7	0	15	2	11	30
7	0	5	2	0	2	12	29
7	7	16	0	0	1	13
10	15	0	0	13	1	14
7	0	14	0	15	2	15	28
5	13	13	0	0	1	16
10	0	17	0	12	1	17
1	0	11	9	0	1	18
5	0	0	8	13	1	19
4	0	0	9	5	2	21	27
2	17	0	7	0	3	23	27	28
6	0	20	0	5	1	22
7	13	0	0	15	1	23
3	12	15	0	0	1	24
6	17	0	15	0	1	25
8	11	0	15	0	1	26
10	0	0	12	15	1	32
8	0	0	10	10	1	32
3	17	0	10	0	1	32
5	6	20	0	0	1	32
6	2	0	0	12	1	32
3	0	0	15	5	1	32
0	0	0	0	0	0
